rc1_10_6

VEHICLE
NUMBER   CAPACITY
250     200

CUSTOMER
CUST NO. XCOORD.  YCOORD.  DEMAND  READY TIME DUE DATE  SERVICE TIME

0   250    250     0     0    1821     0
388 177 156 25 152 212 10
270 178 135 21 1499 1559 10
34 188 119 44 960 1020 10
305 111 178 18 156 216 10
43 111 192 11 1184 1244 10
730 195 111 15 983 1043 10
166 186 135 24 703 763 10
584 173 182 25 102 162 10
425 103 177 28 611 671 10
7 133 202 33 446 506 10
476 176 199 28 89 149 10
536 105 181 19 1516 1576 10
955 153 235 10 98 158 10
508 134 211 35 122 182 10
799 146 188 6 1220 1280 10
27 130 140 17 179 239 10
189 149 214 7 467 527 10
199 148 208 22 511 571 10
904 143 158 12 141 201 10
158 188 151 7 1282 1342 10
789 140 137 32 555 615 10
